presolving:
   (0.1s) running MILP presolver
   (0.1s) MILP presolver found nothing
(round 1, exhaustive) 0 del vars, 0 del conss, 0 add conss, 0 chg bounds, 0 chg sides, 0 chg coeffs, 10294 upgd conss, 0 impls, 10224 clqs
   (0.5s) probing: 51/10150 (0.5%) - 0 fixings, 0 aggregations, 0 implications, 0 bound changes
   (0.5s) probing aborted: 50/50 successive totally useless probings
   (0.6s) symmetry computation started: requiring (bin +, int -, cont +), (fixed: bin -, int +, cont -)
   (0.6s) no symmetry present
presolving (2 rounds: 2 fast, 2 medium, 2 exhaustive):
 0 deleted vars, 0 deleted constraints, 0 added constraints, 0 tightened bounds, 0 added holes, 0 changed sides, 70 changed coefficients
 0 implications, 10224 cliques
presolved problem has 10150 variables (10150 bin, 0 int, 0 impl, 0 cont) and 10294 constraints
     70 constraints of type <knapsack>
  10224 constraints of type <setppc>
transformed objective value is always integral (scale: 1)
Presolving Time: 0.61

 time | node  | left  |LP iter|LP it/n|mem/heur|mdpt |vars |cons |rows |cuts |sepa|confs|strbr|  dualbound   | primalbound  |  gap   | compl. 
p 0.8s|     1 |     0 |     0 |     - |  clique|   0 |  10k|  10k|  10k|   0 |  0 |   0 |   0 | 0.000000e+00 | 7.786300e+04 |    Inf | unknown
  7.5s|     1 |     0 | 11366 |     - |   168M |   0 |  10k|  10k|  10k|   0 |  0 | 115 |   0 | 5.977285e+03 | 7.786300e+04 |1202.65%| unknown
r 7.5s|     1 |     0 | 11366 |     - |rounding|   0 |  10k|  10k|  10k|   0 |  0 | 115 |   0 | 5.977285e+03 | 1.233900e+04 | 106.43%| unknown
  9.1s|     1 |     0 | 11767 |     - |   171M |   0 |  10k|  10k|  10k|   2 |  1 | 115 |   0 | 5.981226e+03 | 1.233900e+04 | 106.30%| unknown
  9.6s|     1 |     0 | 11839 |     - |   172M |   0 |  10k|  10k|  10k|   4 |  2 | 115 |   0 | 5.982356e+03 | 1.233900e+04 | 106.26%| unknown
 10.2s|     1 |     0 | 11965 |     - |   173M |   0 |  10k|  10k|  10k|   5 |  3 | 115 |   0 | 5.982625e+03 | 1.233900e+04 | 106.25%| unknown
r10.2s|     1 |     0 | 11965 |     - |rounding|   0 |  10k|  10k|  10k|   5 |  3 | 115 |   0 | 5.982625e+03 | 1.232200e+04 | 105.96%| unknown
 10.9s|     1 |     0 | 12194 |     - |   176M |   0 |  10k|  10k|  10k|   6 |  4 | 115 |   0 | 5.984797e+03 | 1.232200e+04 | 105.89%| unknown
d26.4s|     1 |     0 | 34784 |     - |farkasdi|   0 |  10k|  10k|  10k|   0 |  6 | 115 |   0 | 5.984797e+03 | 7.596000e+03 |  26.92%| unknown
L42.1s|     1 |     0 | 64270 |     - |    rens|   0 |  10k|  10k|  10k|   6 |  6 | 123 |   0 | 5.984797e+03 | 6.751000e+03 |  12.80%| unknown
 42.6s|     1 |     0 | 64270 |     - |   178M |   0 |  10k|  10k|  10k|   6 |  6 | 123 |   0 | 5.984797e+03 | 6.751000e+03 |  12.80%| unknown
 42.6s|     1 |     0 | 64270 |     - |   179M |   0 |  10k|  10k|8816 |   6 |  6 | 123 |   0 | 5.984797e+03 | 6.751000e+03 |  12.80%| unknown
 43.3s|     1 |     0 | 64547 |     - |   180M |   0 |  10k|8829 |8804 |   8 |  7 | 123 |   0 | 5.988911e+03 | 6.751000e+03 |  12.73%| unknown
(run 1, node 1) restarting after 2175 global fixings of integer variables

(restart) converted 8 cuts from the global cut pool into linear constraints

presolving:
(round 1, fast)       2175 del vars, 0 del conss, 0 add conss, 0 chg bounds, 0 chg sides, 270 chg coeffs, 0 upgd conss, 0 impls, 8064 clqs
   (43.5s) running MILP presolver
   (43.5s) MILP presolver found nothing
(round 2, exhaustive) 2175 del vars, 0 del conss, 0 add conss, 0 chg bounds, 0 chg sides, 270 chg coeffs, 8 upgd conss, 0 impls, 8064 clqs
presolving (3 rounds: 3 fast, 2 medium, 2 exhaustive):
 2175 deleted vars, 0 deleted constraints, 0 added constraints, 0 tightened bounds, 0 added holes, 0 changed sides, 315 changed coefficients
 0 implications, 8064 cliques
presolved problem has 7975 variables (7975 bin, 0 int, 0 impl, 0 cont) and 8145 constraints
     63 constraints of type <knapsack>
   8064 constraints of type <setppc>
     18 constraints of type <logicor>
transformed objective value is always integral (scale: 1)
Presolving Time: 0.82
transformed 6/8 original solutions to the transformed problem space

 time | node  | left  |LP iter|LP it/n|mem/heur|mdpt |vars |cons |rows |cuts |sepa|confs|strbr|  dualbound   | primalbound  |  gap   | compl. 
 48.5s|     1 |     0 | 75747 |     - |   185M |   0 |7975 |8145 |8127 |   0 |  0 | 123 |   0 | 5.988911e+03 | 6.751000e+03 |  12.73%| unknown
 49.7s|     1 |     0 | 76234 |     - |   186M |   0 |7975 |8145 |8128 |   1 |  1 | 123 |   0 | 5.992306e+03 | 6.751000e+03 |  12.66%| unknown
 50.0s|     1 |     0 | 76335 |     - |   187M |   0 |7975 |8145 |8129 |   2 |  2 | 123 |   0 | 5.993132e+03 | 6.751000e+03 |  12.65%| unknown
 67.4s|     1 |     2 | 86338 |     - |   188M |   0 |7975 |8145 |8129 |   2 |  4 | 123 |  24 | 6.023906e+03 | 6.751000e+03 |  12.07%| unknown
*77.0s|     3 |     2 | 92268 |22747.3 |strongbr|   2 |7975 |8145 |8129 |   2 |  2 | 123 |  46 | 6.023906e+03 | 6.190000e+03 |   2.76%| unknown

SCIP Status        : problem is solved [optimal solution found]
Solving Time (sec) : 93.11
Solving Nodes      : 7 (total of 8 nodes in 2 runs)
Primal Bound       : +6.19000000000000e+03 (10 solutions)
Dual Bound         : +6.19000000000000e+03
Gap                : 0.00 %
Solution: {'assignments': {0: 66, 1: 66, 2: 66, 3: 58, 4: 29, 5: 59, 6: 59, 7: 58, 8: 66, 9: 58, 10: 58, 11: 29, 12: 59, 13: 66, 14: 58, 15: 58, 16: 59, 17: 58, 18: 59, 19: 29, 20: 58, 21: 59, 22: 66, 23: 59, 24: 29, 25: 66, 26: 66, 27: 58, 28: 29, 29: 29, 30: 66, 31: 66, 32: 29, 33: 59, 34: 66, 35: 58, 36: 29, 37: 29, 38: 59, 39: 29, 40: 29, 41: 66, 42: 59, 43: 58, 44: 66, 45: 29, 46: 66, 47: 29, 48: 59, 49: 66, 50: 59, 51: 66, 52: 58, 53: 58, 54: 59, 55: 66, 56: 66, 57: 29, 58: 66, 59: 66, 60: 66, 61: 59, 62: 29, 63: 59, 64: 59, 65: 66, 66: 66, 67: 66, 68: 58, 69: 59, 70: 29, 71: 58, 72: 29, 73: 59, 74: 29, 75: 59, 76: 66, 77: 66, 78: 59, 79: 58, 80: 29, 81: 29, 82: 58, 83: 29, 84: 66, 85: 59, 86: 59, 87: 58, 88: 29, 89: 59, 90: 66, 91: 58, 92: 59, 93: 59, 94: 66, 95: 66, 96: 59, 97: 66, 98: 58, 99: 58, 100: 58, 101: 29, 102: 29, 103: 59, 104: 59, 105: 29, 106: 29, 107: 59, 108: 29, 109: 66, 110: 29, 111: 59, 112: 58, 113: 29, 114: 29, 115: 58, 116: 66, 117: 29, 118: 29, 119: 29, 120: 59, 121: 59, 122: 58, 123: 29, 124: 29, 125: 58, 126: 59, 127: 29, 128: 29, 129: 59, 130: 66, 131: 66, 132: 29, 133: 58, 134: 29, 135: 58, 136: 66, 137: 29, 138: 58, 139: 29, 140: 66, 141: 58, 142: 29, 143: 29}, 'buses': {0: 0.0, 1: 0.0, 2: 0.0, 3: 0.0, 4: 0.0, 5: 0.0, 6: 0.0, 7: 0.0, 8: -0.0, 9: 0.0, 10: 0.0, 11: 0.0, 12: 0.0, 13: 0.0, 14: 0.0, 15: -0.0, 16: 0.0, 17: -0.0, 18: 0.0, 19: 0.0, 20: -0.0, 21: 0.0, 22: 0.0, 23: -0.0, 24: 0.0, 25: 0.0, 26: 0.0, 27: 0.0, 28: 0.0, 29: 1.0, 30: 0.0, 31: 0.0, 32: 0.0, 33: 0.0, 34: 0.0, 35: 0.0, 36: 0.0, 37: 0.0, 38: 0.0, 39: 0.0, 40: 0.0, 41: 0.0, 42: 0.0, 43: 0.0, 44: 0.0, 45: 0.0, 46: 0.0, 47: 0.0, 48: 0.0, 49: -0.0, 50: -0.0, 51: -0.0, 52: -0.0, 53: 0.0, 54: 0.0, 55: -0.0, 56: -0.0, 57: 0.0, 58: 1.0, 59: 1.0, 60: -0.0, 61: -0.0, 62: 0.0, 63: -0.0, 64: -0.0, 65: 0.0, 66: 1.0, 67: 0.0, 68: 0.0, 69: 0.0}}
Total Cost: 6190.00
